c 3 __LINUXTHREADS_OLD__
c 6 __UCLIBC_HAS_CRYPT__
c 1 __UCLIBC_HAS_THREADS_NATIVE__
c 4 __UCLIBC_HAS_STDIO_BUFSIZ_NONE__
c 2 __UCLIBC_HAS_CRYPT_IMPL__
c 7 __LINUXTHREADS_NEW__
c 5 __UCLIBC_HAS_THREADS__
p cnf 7 1
1 3 4 -2 -5 -6 7 1
